1649
46 76 43 31 72 97 39 26 88 12 69 21 90 3 80 30 73 68 92 89 20 84 14 32 44 65 49 2 98 85 60 34 17 10 81 96 91 79 70 1 25 9 51 63 5 71 64 16 38 15 36 99 83 11 75 42 41 13 29 27 78 4 62 37 77 61 55 22 35 56 52 93 54 47 59 7 53 57 23 6 66 87 45 58 50 67 19 8 82 86 94 18 24 48 28 40 95 33 74 
